##DATA FILE
param officers := 52;
param min_officers := 3;
param officers_per_car := 1;

# Officers needed at each hour
param D:
	1	2	3	4	5	6	7	8	9	10	11	12 :=
1	14	8	5	14	14	19	21	24	22	20	18	11
2	8	6	3	13	21	23	25	25	30	25	20	15
3	9	8	4	14	26	31	30	29	36	26	23	21
4	14	8	4	13	18	21	30	28	24	23	19	25
5	17	10	4	14	20	23	24	27	28	23	21	32
6	25	14	6	9	17	19	21	22	26	27	22	28
7	33	21	6	8	15	16	19	22	19	17	13	13
